12 66
1 2 4
1 3 2
1 4 4
1 5 4
1 6 5
1 7 1
1 8 5
1 9 3
1 10 5
1 11 1
1 12 2
2 3 5
2 4 3
2 5 3
2 6 2
2 7 1
2 8 2
2 9 2
2 10 2
2 11 4
2 12 3
3 4 5
3 5 2
3 6 2
3 7 4
3 8 1
3 9 1
3 10 5
3 11 5
3 12 5
4 5 2
4 6 2
4 7 2
4 8 4
4 9 3
4 10 2
4 11 2
4 12 2
5 6 4
5 7 3
5 8 2
5 9 1
5 10 4
5 11 3
5 12 4
6 7 3
6 8 4
6 9 5
6 10 1
6 11 5
6 12 1
7 8 1
7 9 1
7 10 4
7 11 5
7 12 2
8 9 5
8 10 1
8 11 5
8 12 2
9 10 3
9 11 3
9 12 1
10 11 5
10 12 4
11 12 4
